 vasp.6.3.2 27Jun22 (build Jun 29 2023 14:50:22) complex
 executed on    LinuxNV_CrayMPICH date 2023.09.22  13:15:33

 INCAR:
   EFIELD = 0.000001
   ENCUT = 600.000000
   POTIM = 0.100000
   SIGMA = 0.050000
   TIME = 0.080000
   EDIFF = 1.00e-11
   EDIFFG = -6.70e-03
   ALGO = All
   GGA = PE
   PREC = Normal
   IBRION = 1
   IDIPOL = 1
   ISIF = 2
   ISMEAR = 0
   ISPIN = 2
   ISTART = 1
   ISYM = 0
   LORBIT = 11
   NELM = 200
   NSW = 50
   IVDW = 12
   NCORE = 8
   DIPOL = 0.4984 0.4650 0.5017
   LDIPOL = .TRUE.
   MAGMOM = 1*5.0000 46*0.0000

 POTCAR:    PAW_PBE Cr 06Sep2000
 POTCAR:    PAW_PBE C 08Apr2002
 POTCAR:    PAW_PBE H 15Jun2001
 POTCAR:    PAW_PBE F 08Apr2002
|           W    W    AA    RRRRR   N    N  II  N    N   GGGG   !!!           |
|           W    W   A  A   R    R  NN   N  II  NN   N  G    G  !!!           |
|           W    W  A    A  R    R  N N  N  II  N N  N  G       !!!           |
|           W WW W  AAAAAA  RRRRR   N  N N  II  N  N N  G  GGG   !            |
|           WW  WW  A    A  R   R   N   NN  II  N   NN  G    G                |
|           W    W  A    A  R    R  N    N  II  N    N   GGGG   !!!           |
|     For optimal performance we recommend to set                             |
|       NCORE = 2 up to number-of-cores-per-socket                            |
|     This setting can greatly improve the performance of VASP for DFT.       |
|     The default, NCORE=1 might be grossly inefficient on modern             |
|     multi-core architectures or massively parallel machines. Do your        |
|     Unfortunately you need to use the default for GW and RPA                |
|     calculations (for HF NCORE is supported but not extensively tested      |
|     yet).                                                                   |

 POTCAR:    PAW_PBE Cr 06Sep2000
   VRHFIN =Cr : d5 s1

   TITEL  = PAW_PBE Cr 06Sep2000
   POMASS =   51.996; ZVAL   =    6.000    mass and valenz
   ENMAX  =  227.080; ENMIN  =  170.310 eV

 POTCAR:    PAW_PBE C 08Apr2002
   VRHFIN =C: s2p2

   TITEL  = PAW_PBE C 08Apr2002
   POMASS =   12.011; ZVAL   =    4.000    mass and valenz
   ENMAX  =  400.000; ENMIN  =  300.000 eV

 POTCAR:    PAW_PBE H 15Jun2001
   VRHFIN =H: ultrasoft test

   TITEL  = PAW_PBE H 15Jun2001
   POMASS =    1.000; ZVAL   =    1.000    mass and valenz
   ENMAX  =  250.000; ENMIN  =  200.000 eV

 POTCAR:    PAW_PBE F 08Apr2002
   VRHFIN =F: s2p5

   TITEL  = PAW_PBE F 08Apr2002
   POMASS =   18.998; ZVAL   =    7.000    mass and valenz
   ENMAX  =  400.000; ENMIN  =  300.000 eV

  PAW_PBE Cr 06Sep2000                  :
  PAW_PBE C 08Apr2002                   :
  PAW_PBE H 15Jun2001                   :
  PAW_PBE F 08Apr2002                   :

 POSCAR: Cr  C  H  F
  positions in cartesian coordinates
 exchange correlation table for  LEXCH =        8
   RHO(1)=    0.500       N(1)  =     2000
   RHO(2)=  100.500       N(2)  =     4000

 ion  position               nearest neighbor table
   1  0.498  0.465  0.502-   5 1.97   2 1.98   6 1.98  15 1.99
   2  0.433  0.478  0.445-  11 1.41   4 1.42   1 1.98
   3  0.464  0.581  0.554-  24 1.09  20 1.40   6 1.41
   4  0.432  0.522  0.397-  12 1.40   2 1.42  13 1.51
   5  0.566  0.452  0.448-   8 1.41  10 1.42   1 1.97
   6  0.507  0.536  0.557-   3 1.41   9 1.42   1 1.98
   7  0.336  0.488  0.369-  45 1.37  17 1.39  12 1.39
   8  0.609  0.497  0.448-  25 1.09  22 1.40   5 1.41
   9  0.553  0.543  0.600-  16 1.40   6 1.42  19 1.51
  10  0.572  0.401  0.408-  18 1.40   5 1.42  23 1.51
  11  0.384  0.440  0.454-  26 1.09  17 1.40   2 1.41
  12  0.383  0.526  0.359-  27 1.09   7 1.39   4 1.40
  13  0.482  0.563  0.385-  29 1.10  28 1.10  30 1.10   4 1.51
  14  0.511  0.638  0.634-  46 1.37  16 1.39  20 1.39
  15  0.483  0.394  0.557-  44 1.10  42 1.10  43 1.10   1 1.99
  16  0.554  0.595  0.638-  31 1.09  14 1.39   9 1.40
  17  0.335  0.444  0.416-  32 1.09   7 1.39  11 1.40
  18  0.620  0.398  0.368-  33 1.09  21 1.39  10 1.40
  19  0.600  0.497  0.606-  34 1.10  35 1.10  36 1.10   9 1.51
  20  0.465  0.633  0.593-  37 1.09  14 1.39   3 1.40
  21  0.661  0.444  0.370-  47 1.37  22 1.39  18 1.39
  22  0.657  0.494  0.409-  38 1.09  21 1.39   8 1.40
  23  0.527  0.351  0.405-  40 1.10  41 1.10  39 1.10  10 1.51
  24  0.428  0.576  0.522-   3 1.09
  25  0.605  0.536  0.479-   8 1.09
  26  0.384  0.406  0.491-  11 1.09
  27  0.381  0.560  0.322-  12 1.09
  28  0.499  0.584  0.428-  13 1.10
  29  0.470  0.600  0.353-  13 1.10
  30  0.518  0.538  0.364-  13 1.10
  31  0.589  0.601  0.671-  16 1.09
  32  0.298  0.415  0.423-  17 1.09
  33  0.625  0.360  0.336-  18 1.09
  34  0.595  0.457  0.576-  19 1.10
  35  0.603  0.479  0.654-  19 1.10
  36  0.643  0.517  0.596-  19 1.10
  37  0.432  0.668  0.591-  20 1.09
  38  0.691  0.529  0.409-  22 1.09
  39  0.531  0.321  0.445-  23 1.10
  40  0.532  0.323  0.363-  23 1.10
  41  0.483  0.370  0.405-  23 1.10
  42  0.472  0.354  0.529-  15 1.10
  43  0.447  0.407  0.588-  15 1.10
  44  0.522  0.384  0.585-  15 1.10
  45  0.289  0.493  0.332-   7 1.37
  46  0.513  0.688  0.671-  14 1.37
  47  0.707  0.439  0.331-  21 1.37

IMPORTANT INFORMATION: All symmetrisations will be switched off!
NOSYMM: (Re-)initialisation of all symmetry stuff for point group C_1.

                                     Primitive cell

  volume of cell :   10999.5355

  direct lattice vectors                    reciprocal lattice vectors
    23.195999146  0.000000000  0.000000000     0.043110883  0.000000000  0.000000000
     0.000000000 21.903999329  0.000000000     0.000000000  0.045653763  0.000000000
     0.000000000  0.000000000 21.649000168     0.000000000  0.000000000  0.046191510

  length of vectors
    23.195999146 21.903999329 21.649000168     0.043110883  0.045653763  0.046191510

  position of ions in fractional coordinates (direct lattice)
     0.498374902  0.464978570  0.501746061
     0.432547787  0.477863129  0.445299298
     0.463628482  0.581301658  0.554497347
     0.431847060  0.521843275  0.397211077
     0.566242868  0.451685644  0.448440355
     0.507084713  0.536306864  0.556912774
     0.336155514  0.487880593  0.369464736
     0.609300745  0.497010872  0.448455508
     0.552749220  0.542986564  0.599726422
     0.571525580  0.401420223  0.407573412
     0.384134800  0.440024898  0.453834037
     0.382947476  0.526362992  0.359492783
     0.482298562  0.563467920  0.384972583
     0.510737412  0.638105307  0.633658879
     0.483144766  0.394311078  0.557024138
     0.554161978  0.594687544  0.637988338
     0.335365124  0.444439949  0.416119371
     0.619527937  0.398082260  0.368409221
     0.600412089  0.496508295  0.606484534
     0.464921802  0.632673524  0.592642594
     0.661095216  0.443800215  0.370179198
     0.657201021  0.493750398  0.409461786
     0.527066586  0.351287715  0.405022382
     0.427832736  0.576349489  0.522179769
     0.605426150  0.536355216  0.479104516
     0.383779302  0.406094960  0.490749908
     0.380942851  0.559774322  0.322177120
     0.498685696  0.583998297  0.427834257
     0.470377546  0.600477937  0.353280894
     0.518325663  0.537994185  0.364332974
     0.588823961  0.601248081  0.671432216
     0.297782128  0.415309666  0.422616244
     0.624755039  0.360179489  0.336194427
     0.594794901  0.457225493  0.575723124
     0.602578196  0.479464703  0.654218004
     0.642632911  0.516807562  0.595755372
     0.431542430  0.667625846  0.590934251
     0.690511124  0.528817145  0.409149053
     0.530722152  0.321010357  0.445398109
     0.532437576  0.323134457  0.363489941
     0.483080371  0.369974514  0.404841190
     0.471532858  0.354123612  0.529197667
     0.447154214  0.406946057  0.587667818
     0.521659022  0.384298099  0.584895815
     0.289150931  0.493402605  0.331811858
     0.513149782  0.688017425  0.671475010
     0.707399274  0.439332316  0.331404711

  ion indices of the primitive-cell ions
   primitive index   ion index
                 1           1
                 2           2
                 3           3
                 4           4
                 5           5
                 6           6
                 7           7
                 8           8
                 9           9
                10          10
                11          11
                12          12
                13          13
                14          14
                15          15
                16          16
                17          17
                18          18
                19          19
                20          20
                21          21
                22          22
                23          23
                24          24
                25          25
                26          26
                27          27
                28          28
                29          29
                30          30
                31          31
                32          32
                33          33
                34          34
                35          35
                36          36
                37          37
                38          38
                39          39
                40          40
                41          41
                42          42
                43          43
                44          44
                45          45
                46          46
                47          47

 KPOINTS: KPOINTS created by Atomic Simulation Env

Automatic generation of k-mesh.
 Grid dimensions read from file:
 generate k-points for:    1    1    1

 Generating k-lattice:

  Cartesian coordinates                     Fractional coordinates (reciprocal lattice)
     0.043110883  0.000000000  0.000000000     1.000000000  0.000000000  0.000000000
     0.000000000  0.045653763  0.000000000     0.000000000  1.000000000  0.000000000
     0.000000000  0.000000000  0.046191510     0.000000000  0.000000000  1.000000000

  Length of vectors
     0.043110883  0.045653763  0.046191510

  Shift w.r.t. Gamma in fractional coordinates (k-lattice)
     0.000000000  0.000000000  0.000000000

 Subroutine IBZKPT returns following result:

 Found      1 irreducible k-points:

 Following reciprocal coordinates:
            Coordinates               Weight
  0.000000  0.000000  0.000000      1.000000

 Following cartesian coordinates:
            Coordinates               Weight
  0.000000  0.000000  0.000000      1.000000

 SYSTEM =  unknown system
 POSCAR =  Cr  C  H  F

 Startparameter for this run:
   NWRITE =      2    write-flag & timer
   PREC   = normal    normal or accurate (medium, high low for compatibility)
   ISTART =      1    job   : 0-new  1-cont  2-samecut
   ICHARG =      0    charge: 1-file 2-atom 10-const
   ISPIN  =      2    spin polarized calculation?
   LNONCOLLINEAR =      F non collinear calculations
   LSORBIT =      F    spin-orbit coupling
   INIWAV =      1    electr: 0-lowe 1-rand  2-diag
   LASPH  =      F    aspherical Exc in radial PAW
 Electronic Relaxation 1
   ENCUT  =  600.0 eV  44.10 Ry    6.64 a.u.  46.33 43.75 43.24*2*pi/ulx,y,z
   ENINI  =  600.0     initial cutoff
   ENAUG  =  644.9 eV  augmentation charge cutoff
[...]
  176          m_sumb_d                              0.001325                          4   4
  177          shift_bands_between_low_high          0.000001                          2   4
  178          lincom                                0.000123                          2   4
  179          overl                                 0.000028                          2   4
  180          redis_proj                            0.000612                          6   4
  181            m_alltoall_d                          0.000473                       36   5
  182        m_sumb_d                              0.001878                           11   3
  183      rotate_active_occupied_orbital        0.000000                              1   2
  184      sphpro_fast                           0.016122                              2   2
  185        m_sumb_d                              0.001486                            5   3
  186      force_and_stress                      3.590570                              1   2
  187        forloc                                0.005832                            1   3
  188          m_sumb_d                              0.000068                          1   4
  189        fornl                                 0.383322                            1   3
  190          phase                                 0.000007                          1   4
  191          m_sumb_d                              0.000730                          2   4
  192        fordep                                0.022351                            1   3
  193          setdij_                               0.022292                          6   4
  194            m_sumb_d                              0.002978                        6   5
  195        setdij_                               0.081833                           20   3
  196          m_sumb_d                              0.018370                         20   4
  197        set_dd_magatom                        0.000004                            1   3
  198        set_dd_paw                            0.012274                            1   3
  199          m_sumb_d                              0.006035                          7   4
  200        strkin                                0.016824                            1   3
  201          m_sumb_d                              0.000060                          1   4
  202        strelo                                0.007505                            1   3
  203          m_sumb_d                              0.000081                          2   4
  204        strenl                                2.939944                            1   3
  205          spher                                 2.702347                         19   4
  206          phase                                 0.000128                          9   4
  207          proj1_acc                             0.091061                        108   4
  208          m_sumb_d                              0.127121                          1   4
  209        fft3d_mpi                             0.024941                           22   3
  210          fftbrc_mpi                            0.023655                         22   4
  211            fftbas_plan_mpi                       0.023641                       22   5
  212              map_forward                           0.012157                     20   6
  213                map_gather                            0.000463                   10   7
  214                m_alltoallv_z                         0.000215                   10   7
  215                map_scatter                           0.011201                   10   7
  216              map_backward                          0.010786                     24   6
  217                map_gather                            0.000561                   12   7
  218                m_alltoallv_z                         0.000219                   12   7
  219                map_scatter                           0.009596                   12   7
  220        m_sumb_d                              0.000177                            5   3
  221        forhar                                0.004456                            1   3
  222          m_sumb_d                              0.000108                          1   4
  223        strehar                               0.006376                            1   3
  224          m_sumb_d                              0.000029                          1   4
  225        m_bcast_d                             0.012548                            2   3
  226      potlok                                0.064582                              1   2
  227        fft3d_mpi                             0.036531                           26   3
  228          fftbrc_mpi                            0.034519                         26   4
  229            fftbas_plan_mpi                       0.034501                       26   5
  230              map_forward                           0.018569                     28   6
  231                map_gather                            0.000651                   16   7
  232                m_alltoallv_z                         0.000289                   16   7
  233                map_scatter                           0.017291                   16   7
  234              map_backward                          0.014668                     24   6
  235                map_gather                            0.000561                   12   7
  236                m_alltoallv_z                         0.000227                   12   7
  237                map_scatter                           0.013469                   12   7
  238        m_sumb_d                              0.001003                            7   3
  239        fewald                                0.000101                            2   3
  240          rsp                                   0.000082                          2   4
  241          rcp                                   0.000015                          2   4
  242        pothar                                0.000335                            1   3
  243          m_sumb_d                              0.000208                          1   4
  244        m_bcast_d                             0.000029                            2   3
  245      potlok_metagga                        0.000001                              1   2
  246      set_dd_magatom                        0.000004                              1   2
  247      set_dd_paw                            0.011197                              1   2
  248        m_sumb_d                              0.004584                            7   3
  249      m_sumb_d                              2.328129                           1409   2

 Flat profile

 total_time                             39.254773           1
 init_acc                                3.014145           1
 m_sumb_d                                2.985401        1670
 spher                                   2.857355          20
 acc_init_cublas                         2.226171           1
 acc_init_cusolver                       0.728991           1
 m_alltoallv_z                           0.457835         197
 m_alltoall_d                            0.409065         948
 fornl                                   0.382585           1
 m_bcast_z                               0.237846         194
 potlok                                  0.207861           5
 map_scatter                             0.198890         197
 fft3d                                   0.193165         170
 redis_pw                                0.171333         134
 elmin_all                               0.141536           1
 fft3d_mpi                               0.132230         213
 edwav                                   0.130418           4
 phase                                   0.117337          16
 proj1_acc                               0.116765         144
 dfftw_execute                           0.112419          75
 acc_cufft_makeplan                      0.109066          19
 soft_charge                             0.104330           5
 setdij_                                 0.104141          32
 stufak                                  0.092880           1
 m_bcast_d                               0.084100          17
 force_and_stress                        0.072182           1
 vnlac0_acc                              0.069115          24
 proall                                  0.066958           1
 map_gather                              0.044702         197
 set_dd_paw                              0.039840           6
 pw_charge                               0.035733          50
 fftwav                                  0.030193         134
 eccp                                    0.025543          96
 orth1                                   0.024610          60
 augmentation_charge                     0.024372           5
 strenl                                  0.019287           1
 orthch                                  0.018185           5
 strkin                                  0.016764           1
 sphpro_fast                             0.014636           2
 hamilt_local                            0.013528          36
 fftbas_plan_mpi                         0.013026         177
 lincom                                  0.011384          28
 fft_gq                                  0.010465           5
 redis_proj                              0.010440         172
 proj                                    0.008025           1
 eddiag                                  0.008008           3
 strelo                                  0.007424           1
 choleski                                0.006402          10
 strehar                                 0.006347           1
 set_charge                              0.005961           5
 forloc                                  0.005764           1
 fftext_mpi                              0.005480          36
 forhar                                  0.004348           1
 map_backward                            0.002538         184
 vhamil                                  0.002424          36
 overl                                   0.002412          44
 map_forward                             0.002018         170
 rsp                                     0.001311          11
 depsum                                  0.001190           5
 brgrid                                  0.000817           1
 kinhamil                                0.000668          36
 pothar                                  0.000647           5
 densta                                  0.000497           6
 fewald                                  0.000246          11
 fftwav_mpi                              0.000230         134
 w1_dscal                                0.000198          24
 rcp                                     0.000134          11
 fftbrc_mpi                              0.000121         177
 fordep                                  0.000059           1
 crpa_reader                             0.000026           1
 redis_pw_all                            0.000021           4
 acc_cufft_makeplans                     0.000013           3
 set_dd_magatom                          0.000008           2
 vectorpot                               0.000004           1
 redis_pw_over_bands                     0.000004           5
 potlok_metagga                          0.000002           5
 shift_bands_between_low_high            0.000001           2
 rotate_active_occupied_orbital          0.000000           1
  summed up times     55.20494604110718

 Accumulative profile

 total_time                             55.204946           1
 force_and_stress                        3.590570           1
 init_acc                                3.014145           1
 m_sumb_d                                2.985401        1670
 strenl                                  2.939944           1
 spher                                   2.857355          20
 acc_init_cublas                         2.226171           1
 elmin_all                               2.150320           1
 set_charge                              1.102992           5
 soft_charge                             0.964247           5
 fft3d_mpi                               0.964044         213
 fftbrc_mpi                              0.831549         177
 fftbas_plan_mpi                         0.831428         177
 potlok                                  0.818227           5
 acc_init_cusolver                       0.728991           1
 map_forward                             0.545832         170
 orthch                                  0.512968           5
 m_alltoallv_z                           0.457835         197
 edwav                                   0.432231           4
 redis_proj                              0.414358         172
 m_alltoall_d                            0.409065         948
 fornl                                   0.383322           1
 m_bcast_z                               0.237846         194
 fftwav_mpi                              0.223322         134
 fftwav                                  0.223092         134
 map_scatter                             0.198890         197
 fft3d                                   0.193165         170
 proall                                  0.192416           1
 fft_gq                                  0.184168           5
 redis_pw                                0.176479         134
 map_backward                            0.160151         184
 augmentation_charge                     0.129483           5
 setdij_                                 0.128627          32
 phase                                   0.117337          16
 proj1_acc                               0.116765         144
 dfftw_execute                           0.112419          75
 acc_cufft_makeplans                     0.109078           3
 acc_cufft_makeplan                      0.109066          19
 stufak                                  0.092880           1
 m_bcast_d                               0.084100          17
 vnlac0_acc                              0.069115          24
 set_dd_paw                              0.068906           6
 eddiag                                  0.046467           3
 map_gather                              0.044702         197
 pw_charge                               0.035733          50
 eccp                                    0.025543          96
 orth1                                   0.024610          60
 hamilt_local                            0.022377          36
 fordep                                  0.022351           1
 redis_pw_over_bands                     0.017839           5
 redis_pw_all                            0.017835           4
 strkin                                  0.016824           1
 sphpro_fast                             0.016122           2
 densta                                  0.012427           6
 lincom                                  0.011384          28
 proj                                    0.008289           1
 strelo                                  0.007505           1
 kinhamil                                0.006425          36
 choleski                                0.006402          10
 strehar                                 0.006376           1
 forloc                                  0.005832           1
 fftext_mpi                              0.005758          36
 forhar                                  0.004456           1
 depsum                                  0.003300           5
 vhamil                                  0.002424          36
 overl                                   0.002412          44
 fewald                                  0.002158          11
 rsp                                     0.001311          11
 pothar                                  0.001284           5
 brgrid                                  0.000817           1
 w1_dscal                                0.000198          24
 rcp                                     0.000134          11
 crpa_reader                             0.000026           1
 set_dd_magatom                          0.000008           2
 vectorpot                               0.000004           1
 potlok_metagga                          0.000002           5
 shift_bands_between_low_high            0.000001           2
 rotate_active_occupied_orbital          0.000000           1

Profiling took   0.004540  0.003663  0.003229  0.003176 seconds
Profiling took   0.000728 seconds